
Gurobi 9.5.1 (linux64) logging started Tue May 31 21:01:26 2022

Set parameter LogFile to value "../results/logs/log_soc-catster.e_21_250_2022_05_31_19_00.log"
Gurobi Optimizer version 9.5.1 build v9.5.1rc2 (linux64)
Thread count: 8 physical cores, 8 logical processors, using up to 8 threads
Optimize a model with 299369 rows, 299368 columns and 22391524 nonzeros
Model fingerprint: 0x17dfa935
Variable types: 0 continuous, 299368 integer (299368 binary)
Coefficient statistics:
  Matrix range     [1e+00, 2e+01]
  Objective range  [1e+00, 1e+00]
  Bounds range     [1e+00, 1e+00]
  RHS range        [1e+00, 2e+02]
Found heuristic solution: objective -0.0000000
Presolve removed 75786 rows and 40225 columns (presolve time = 5s) ...
Presolve removed 76092 rows and 40356 columns (presolve time = 11s) ...
Presolve removed 76092 rows and 58641 columns (presolve time = 16s) ...
Presolve removed 76092 rows and 58641 columns (presolve time = 20s) ...
Presolve removed 76092 rows and 58641 columns (presolve time = 25s) ...
Presolve removed 76092 rows and 58641 columns (presolve time = 30s) ...
Presolve removed 76092 rows and 58641 columns (presolve time = 35s) ...
Presolve removed 76092 rows and 58641 columns (presolve time = 41s) ...
Presolve removed 76092 rows and 58641 columns (presolve time = 45s) ...
Presolve removed 76092 rows and 89331 columns (presolve time = 50s) ...
Presolve removed 76092 rows and 89331 columns (presolve time = 55s) ...
Presolve removed 137472 rows and 89331 columns (presolve time = 61s) ...
Presolve removed 137472 rows and 104192 columns (presolve time = 67s) ...
Presolve removed 137472 rows and 104192 columns (presolve time = 70s) ...
Presolve removed 137472 rows and 104193 columns (presolve time = 75s) ...
Presolve removed 137473 rows and 104194 columns (presolve time = 81s) ...
Presolve removed 137473 rows and 104194 columns (presolve time = 86s) ...
Presolve removed 137473 rows and 104194 columns (presolve time = 90s) ...
Presolve removed 137473 rows and 104194 columns (presolve time = 95s) ...
Presolve removed 137473 rows and 104194 columns (presolve time = 100s) ...
Presolve removed 137473 rows and 104194 columns (presolve time = 106s) ...
Presolve removed 137467 rows and 104188 columns
Presolve time: 107.96s
Presolved: 161902 rows, 195180 columns, 19514431 nonzeros
Variable types: 0 continuous, 195180 integer (188121 binary)
Found heuristic solution: objective 77258.000000

Deterministic concurrent LP optimizer: primal simplex, dual simplex, and barrier
Showing barrier log only...

Root barrier log...

Elapsed ordering time = 6s
Elapsed ordering time = 10s
Ordering time: 13.32s

Barrier performed 0 iterations in 152.91 seconds (193.49 work units)
Barrier solve interrupted - model solved by another algorithm

Concurrent spin time: 24.21s (can be avoided by choosing Method=3)

Solved with dual simplex

Root relaxation: objective 8.080172e+04, 7297 iterations, 41.02 seconds (56.75 work units)
Total elapsed time = 155.44s

    Nodes    |    Current Node    |     Objective Bounds      |     Work
 Expl Unexpl |  Obj  Depth IntInf | Incumbent    BestBd   Gap | It/Node Time

     0     0 80801.7230    0 1617 77258.0000 80801.7230  4.59%     -  161s
H    0     0                    78665.000000 80801.7230  2.72%     -  164s
H    0     0                    78734.000000 80801.7230  2.63%     -  164s
     0     0 79985.0925    0 1090 78734.0000 79985.0925  1.59%     -  190s
H    0     0                    79473.000000 79985.0925  0.64%     -  195s
H    0     0                    79534.000000 79985.0925  0.57%     -  201s
     0     0 79978.8852    0 1090 79534.0000 79978.8852  0.56%     -  203s
     0     0 79978.4766    0 1082 79534.0000 79978.4766  0.56%     -  205s
     0     0 79978.4378    0 1093 79534.0000 79978.4378  0.56%     -  207s
     0     0 79750.8133    0  616 79534.0000 79750.8133  0.27%     -  235s
     0     0 79740.6912    0  636 79534.0000 79740.6912  0.26%     -  241s
     0     0 79739.9935    0  633 79534.0000 79739.9935  0.26%     -  243s
     0     0 79739.8627    0  636 79534.0000 79739.8627  0.26%     -  246s
     0     0 79739.8071    0  635 79534.0000 79739.8071  0.26%     -  247s
     0     0 79706.0586    0  837 79534.0000 79706.0586  0.22%     -  287s
H    0     0                    79555.000000 79706.0586  0.19%     -  296s
     0     0 79699.9560    0  828 79555.0000 79699.9560  0.18%     -  298s
     0     0 79698.3691    0  832 79555.0000 79698.3691  0.18%     -  302s
     0     0 79697.8363    0  831 79555.0000 79697.8363  0.18%     -  304s
     0     0 79697.2662    0  860 79555.0000 79697.2662  0.18%     -  307s
     0     0 79696.9523    0  831 79555.0000 79696.9523  0.18%     -  309s
     0     0 79696.7725    0  869 79555.0000 79696.7725  0.18%     -  311s
     0     0 79696.7708    0  867 79555.0000 79696.7708  0.18%     -  314s
     0     0 79682.8541    0  942 79555.0000 79682.8541  0.16%     -  328s
     0     0 79678.3147    0  993 79555.0000 79678.3147  0.16%     -  336s
     0     0 79677.3991    0  998 79555.0000 79677.3991  0.15%     -  339s
     0     0 79676.9396    0 1048 79555.0000 79676.9396  0.15%     -  342s
     0     0 79676.9051    0 1054 79555.0000 79676.9051  0.15%     -  344s
     0     0 79671.1112    0  976 79555.0000 79671.1112  0.15%     -  359s
     0     0 79670.4255    0 1058 79555.0000 79670.4255  0.15%     -  371s
     0     0 79669.9884    0  990 79555.0000 79669.9884  0.14%     -  375s
     0     0 79669.8493    0 1027 79555.0000 79669.8493  0.14%     -  378s
     0     0 79669.7961    0 1050 79555.0000 79669.7961  0.14%     -  380s
     0     0 79665.3260    0 1040 79555.0000 79665.3260  0.14%     -  395s
     0     0 79664.3405    0  992 79555.0000 79664.3405  0.14%     -  402s
     0     0 79663.9529    0 1092 79555.0000 79663.9529  0.14%     -  406s
     0     0 79663.8189    0 1080 79555.0000 79663.8189  0.14%     -  409s
     0     0 79660.2264    0 1023 79555.0000 79660.2264  0.13%     -  423s
     0     0 79659.5638    0 1119 79555.0000 79659.5638  0.13%     -  437s
     0     0 79659.2832    0 1096 79555.0000 79659.2832  0.13%     -  440s
     0     0 79659.2367    0 1151 79555.0000 79659.2367  0.13%     -  443s
     0     0 79656.1554    0 1131 79555.0000 79656.1554  0.13%     -  459s
H    0     0                    79556.000000 79656.1554  0.13%     -  463s
     0     0 79655.8752    0 1170 79556.0000 79655.8752  0.13%     -  466s
     0     0 79655.7465    0 1188 79556.0000 79655.7465  0.13%     -  469s
     0     0 79652.1562    0 1154 79556.0000 79652.1562  0.12%     -  516s
     0     0 79651.2250    0 1228 79556.0000 79651.2250  0.12%     -  532s
     0     0 79650.9122    0 1222 79556.0000 79650.9122  0.12%     -  537s
     0     0 79650.7774    0 1283 79556.0000 79650.7774  0.12%     -  540s
     0     0 79647.9630    0 1219 79556.0000 79647.9630  0.12%     -  559s
     0     0 79647.4652    0 1264 79556.0000 79647.4652  0.11%     -  566s
     0     0 79647.3235    0 1261 79556.0000 79647.3235  0.11%     -  570s
     0     0 79647.2501    0 1266 79556.0000 79647.2501  0.11%     -  573s
     0     0 79645.3528    0 1235 79556.0000 79645.3528  0.11%     -  591s
     0     0 79645.1486    0 1309 79556.0000 79645.1486  0.11%     -  605s
     0     0 79645.0428    0 1325 79556.0000 79645.0428  0.11%     -  608s
     0     0 79642.9469    0 1202 79556.0000 79642.9469  0.11%     -  625s
     0     0 79642.2176    0 1394 79556.0000 79642.2176  0.11%     -  634s
     0     0 79642.1208    0 1393 79556.0000 79642.1208  0.11%     -  638s
     0     0 79639.9200    0 1307 79556.0000 79639.9200  0.11%     -  684s
     0     0 79639.5522    0 1352 79556.0000 79639.5522  0.11%     -  700s
     0     0 79639.4449    0 1402 79556.0000 79639.4449  0.10%     -  703s
     0     0 79638.0259    0 1357 79556.0000 79638.0259  0.10%     -  721s
     0     0 79637.7282    0 1411 79556.0000 79637.7282  0.10%     -  729s
     0     0 79637.6693    0 1401 79556.0000 79637.6693  0.10%     -  733s
     0     0 79636.6056    0 1446 79556.0000 79636.6056  0.10%     -  751s
     0     0 79636.3239    0 1422 79556.0000 79636.3239  0.10%     -  767s
     0     0 79636.1299    0 1471 79556.0000 79636.1299  0.10%     -  771s
     0     0 79636.0530    0 1487 79556.0000 79636.0530  0.10%     -  775s
     0     0 79634.3113    0 1440 79556.0000 79634.3113  0.10%     -  799s
     0     0 79633.6318    0 1464 79556.0000 79633.6318  0.10%     -  808s
     0     0 79633.5233    0 1533 79556.0000 79633.5233  0.10%     -  813s
     0     0 79631.3751    0 1346 79556.0000 79631.3751  0.09%     -  862s
     0     0 79630.6232    0 1404 79556.0000 79630.6232  0.09%     -  882s
     0     0 79630.3925    0 1438 79556.0000 79630.3925  0.09%     -  887s
     0     0 79630.3386    0 1446 79556.0000 79630.3386  0.09%     -  891s
     0     0 79629.1191    0 1418 79556.0000 79629.1191  0.09%     -  911s
     0     0 79628.7127    0 1423 79556.0000 79628.7127  0.09%     -  920s
     0     0 79628.6326    0 1518 79556.0000 79628.6326  0.09%     -  923s
     0     0 79627.5119    0 1414 79556.0000 79627.5119  0.09%     -  941s
     0     0 79627.0700    0 1399 79556.0000 79627.0700  0.09%     -  958s
     0     0 79626.8876    0 1533 79556.0000 79626.8876  0.09%     -  963s
     0     0 79626.8144    0 1415 79556.0000 79626.8144  0.09%     -  967s
     0     0 79625.6717    0 1475 79556.0000 79625.6717  0.09%     -  987s
     0     0 79624.9806    0 1495 79556.0000 79624.9806  0.09%     -  997s
     0     0 79624.8628    0 1502 79556.0000 79624.8628  0.09%     - 1001s
     0     0 79623.0695    0 1416 79556.0000 79623.0695  0.08%     - 1051s
     0     0 79622.7562    0 1511 79556.0000 79622.7562  0.08%     - 1069s
     0     0 79622.6039    0 1548 79556.0000 79622.6039  0.08%     - 1073s
     0     0 79622.5336    0 1529 79556.0000 79622.5336  0.08%     - 1077s
     0     0 79621.9744    0 1533 79556.0000 79621.9744  0.08%     - 1097s
     0     0 79621.6407    0 1580 79556.0000 79621.6407  0.08%     - 1106s
     0     0 79621.5546    0 1587 79556.0000 79621.5546  0.08%     - 1111s
     0     0 79620.5337    0 1490 79556.0000 79620.5337  0.08%     - 1131s
     0     0 79620.5337    0 1464 79556.0000 79620.5337  0.08%     - 1141s
H    0     0                    79558.000000 79620.5337  0.08%     - 1152s
H    0     0                    79560.000000 79620.5337  0.08%     - 1191s
     0     2 79619.5337    0 1455 79560.0000 79619.5337  0.07%     - 1225s
     3     8 79618.0464    2 1560 79560.0000 79618.4623  0.07%   682 1264s
     7    16 79616.9448    3 1595 79560.0000 79618.0462  0.07%  1431 1298s
    15    24 79615.8645    4 1651 79560.0000 79616.4665  0.07%  1295 1328s
    23    32 79614.9892    5 1672 79560.0000 79616.4665  0.07%  1214 1346s
    31    40 79614.0886    6 1653 79560.0000 79616.4665  0.07%  1035 1352s
    39    48 79613.4396    7 1615 79560.0000 79616.4665  0.07%   883 1376s
    47    56 79612.8700    8 1587 79560.0000 79616.4665  0.07%   903 1395s
    55    77 79611.8316    9 1583 79560.0000 79616.4665  0.07%   857 1434s
    76   104 79610.9327   11 1546 79560.0000 79616.4665  0.07%   723 1524s
H   97   104                    79561.000000 79616.4665  0.07%   695 1524s
   103   186 79609.1860   13 1558 79561.0000 79616.4665  0.07%   712 1668s
   185   405 79603.7784   21 1472 79561.0000 79616.4665  0.07%   579 1957s
   404   667 79599.1623   37 1264 79561.0000 79616.4665  0.07%   460 2198s
   666   885 79589.2629   56 1130 79561.0000 79616.4665  0.07%   390 2385s
   888  1117 79584.2564   74 1002 79561.0000 79616.4665  0.07%   351 2560s
  1125  1287 79580.1395   92  927 79561.0000 79616.4665  0.07%   326 2695s
  1301  1538 79574.9687  108  886 79561.0000 79616.4665  0.07%   320 2864s
  1552  1839 79566.8435  139  508 79561.0000 79616.2493  0.07%   301 3047s
  1870  1942 79612.3221    5 1638 79561.0000 79616.2493  0.07%   275 3206s
  1993  2055 79608.7017    7 1675 79561.0000 79616.2493  0.07%   277 3378s
  2153  2149 79604.4269   12 1615 79561.0000 79616.2493  0.07%   279 3554s

Cutting planes:
  Gomory: 380
  Cover: 64
  Implied bound: 6
  Clique: 11
  MIR: 2200
  StrongCG: 148
  GUB cover: 1505
  Inf proof: 6
  Zero half: 290
  RLT: 190
  Relax-and-lift: 15

Explored 2255 nodes (716278 simplex iterations) in 3602.85 seconds (6021.69 work units)
Thread count was 8 (of 8 available processors)

Solution count 10: 79561 79560 79558 ... 77258

Time limit reached
Best objective 7.956100000000e+04, best bound 7.961600000000e+04, gap 0.0691%
